Route #1: 55 36 41 30 5 14 34 28 17 
Route #2: 49 25 46 7 32 12 16 
Route #3: 47 24 6 57 19 27 13 54 26 
Route #4: 53 51 40 15 23 43 31 3 2 
Route #5: 50 45 22 11 4 9 29 
Route #6: 56 38 8 44 21 48 33 
Route #7: 42 20 35 18 52 10 39 37 
cost 1208.14
